\ENCODING=ISO-8859-1
\Problem name: ilog.cplex

Maximize
 obj: 855 x(0)#0 + 1005 x(1)#1 + 509 x(2)#2 + 1046 x(3)#3 + 983 x(4)#4
      + 754 x(5)#5 + 732 x(6)#6 + 713 x(7)#7 + 674 x(8)#8 + 975 x(9)#9
      + 590 x(10)#10 + 909 x(11)#11 + 741 x(12)#12 + 627 x(13)#13
      + 568 x(14)#14 + 977 x(15)#15 + 363 x(16)#16 + 861 x(17)#17
      + 941 x(18)#18 + 916 x(19)#19 + 738 x(20)#20 + 977 x(21)#21
      + 188 x(22)#22 + 677 x(23)#23 + 778 x(24)#24 + 536 x(25)#25
      + 920 x(26)#26 + 820 x(27)#27 + 747 x(28)#28 + 586 x(29)#29
      + 602 x(30)#30 + 775 x(31)#31 + 632 x(32)#32 + 847 x(33)#33
      + 780 x(34)#34 + 1018 x(35)#35 + 697 x(36)#36 + 821 x(37)#37
      + 789 x(38)#38 + 1040 x(39)#39 + 813 x(40)#40 + 607 x(41)#41
      + 408 x(42)#42 + 584 x(43)#43 + 735 x(44)#44 + 705 x(45)#45
      + 421 x(46)#46 + 979 x(47)#47 + 584 x(48)#48 + 413 x(49)#49
      + 803 x(50)#50 + 310 x(51)#51 + 1024 x(52)#52 + 1044 x(53)#53
      + 800 x(54)#54 + 825 x(55)#55 + 476 x(56)#56 + 693 x(57)#57
      + 496 x(58)#58 + 629 x(59)#59 + 848 x(60)#60 + 819 x(61)#61
      + 770 x(62)#62 + 480 x(63)#63 + 602 x(64)#64 + 800 x(65)#65
      + 1108 x(66)#66 + 555 x(67)#67 + 682 x(68)#68 + 670 x(69)#69
      + 875 x(70)#70 + 843 x(71)#71 + 489 x(72)#72 + 775 x(73)#73
      + 628 x(74)#74 + 955 x(75)#75 + 892 x(76)#76 + 760 x(77)#77
      + 1141 x(78)#78 + 558 x(79)#79 + 732 x(80)#80 + 782 x(81)#81
      + 971 x(82)#82 + 393 x(83)#83 + 987 x(84)#84 + 860 x(85)#85
      + 1059 x(86)#86 + 651 x(87)#87 + 731 x(88)#88 + 727 x(89)#89
      + 1130 x(90)#90 + 545 x(91)#91 + 723 x(92)#92 + 990 x(93)#93
      + 486 x(94)#94 + 575 x(95)#95 + 703 x(96)#96 + 979 x(97)#97
      + 613 x(98)#98 + 945 x(99)#99
Subject To
 c1: 919 x(0)#0 + 752 x(1)#1 + 389 x(2)#2 + 678 x(3)#3 + 803 x(4)#4
     + 595 x(5)#5 + 171 x(6)#6 + 211 x(7)#7 + 52 x(8)#8 + 449 x(9)#9
     + 38 x(10)#10 + 658 x(11)#11 + 673 x(12)#12 + 470 x(13)#13 + 256 x(14)#14
     + 447 x(15)#15 + 834 x(16)#16 + 329 x(17)#17 + 937 x(18)#18 + 998 x(19)#19
     + 325 x(20)#20 + 918 x(21)#21 + 33 x(22)#22 + 576 x(23)#23 + 448 x(24)#24
     + 118 x(25)#25 + 825 x(26)#26 + 928 x(27)#27 + 306 x(28)#28 + 393 x(29)#29
     + 53 x(30)#30 + 100 x(31)#31 + 535 x(32)#32 + 495 x(33)#33 + 794 x(34)#34
     + 659 x(35)#35 + 951 x(36)#36 + 705 x(37)#37 + 232 x(38)#38 + 627 x(39)#39
     + 566 x(40)#40 + 163 x(41)#41 + 438 x(42)#42 + 408 x(43)#43 + 329 x(44)#44
     + 638 x(45)#45 + 7 x(46)#46 + 892 x(47)#47 + 965 x(48)#48 + 6 x(49)#49
     + 648 x(50)#50 + 10 x(51)#51 + 624 x(52)#52 + 848 x(53)#53 + 958 x(54)#54
     + 360 x(55)#55 + 828 x(56)#56 + 514 x(57)#57 + 266 x(58)#58 + 983 x(59)#59
     + 335 x(60)#60 + 368 x(61)#61 + 77 x(62)#62 + 124 x(63)#63 + 84 x(64)#64
     + 42 x(65)#65 + 993 x(66)#66 + 116 x(67)#67 + 95 x(68)#68 + 6 x(69)#69
     + 957 x(70)#70 + 946 x(71)#71 + 18 x(72)#72 + 670 x(73)#73 + 846 x(74)#74
     + 248 x(75)#75 + 746 x(76)#76 + 194 x(77)#77 + 573 x(78)#78 + 30 x(79)#79
     + 393 x(80)#80 + 420 x(81)#81 + 573 x(82)#82 + 285 x(83)#83 + 434 x(84)#84
     + 430 x(85)#85 + 657 x(86)#86 + 947 x(87)#87 + 791 x(88)#88 + 147 x(89)#89
     + 296 x(90)#90 + 332 x(91)#91 + 722 x(92)#92 + 927 x(93)#93 + 135 x(94)#94
     + 69 x(95)#95 + 453 x(96)#96 + 728 x(97)#97 + 818 x(98)#98 + 352 x(99)#99
     <= 36381
 c2: 866 x(0)#0 + 178 x(1)#1 + 155 x(2)#2 + 678 x(3)#3 + 969 x(4)#4
     + 371 x(5)#5 + 686 x(6)#6 + 424 x(7)#7 + 829 x(8)#8 + 867 x(9)#9
     + 330 x(10)#10 + 908 x(11)#11 + 781 x(12)#12 + 305 x(13)#13 + 376 x(14)#14
     + 664 x(15)#15 + 204 x(16)#16 + 13 x(17)#17 + 809 x(18)#18 + 191 x(19)#19
     + 288 x(20)#20 + 130 x(21)#21 + 17 x(22)#22 + 215 x(23)#23 + 106 x(24)#24
     + 392 x(25)#25 + 861 x(26)#26 + 478 x(27)#27 + 154 x(28)#28 + 458 x(29)#29
     + 693 x(30)#30 + 439 x(31)#31 + 296 x(32)#32 + 548 x(33)#33 + 682 x(34)#34
     + 793 x(35)#35 + 994 x(36)#36 + 930 x(37)#37 + 46 x(38)#38 + 26 x(39)#39
     + 113 x(40)#40 + 337 x(41)#41 + 398 x(42)#42 + 262 x(43)#43 + 650 x(44)#44
     + 662 x(45)#45 + 777 x(46)#46 + 986 x(47)#47 + 317 x(48)#48 + 136 x(49)#49
     + 141 x(50)#50 + 638 x(51)#51 + 519 x(52)#52 + 679 x(53)#53 + 198 x(54)#54
     + 334 x(55)#55 + 224 x(56)#56 + 961 x(57)#57 + 93 x(58)#58 + 279 x(59)#59
     + 948 x(60)#60 + 632 x(61)#61 + 938 x(62)#62 + 58 x(63)#63 + 586 x(64)#64
     + 325 x(65)#65 + 602 x(66)#66 + 946 x(67)#67 + 686 x(68)#68 + 274 x(69)#69
     + 534 x(70)#70 + 213 x(71)#71 + 606 x(72)#72 + 859 x(73)#73 + 105 x(74)#74
     + 980 x(75)#75 + 767 x(76)#76 + 523 x(77)#77 + 623 x(78)#78 + 3 x(79)#79
     + 326 x(80)#80 + 445 x(81)#81 + 822 x(82)#82 + 55 x(83)#83 + 773 x(84)#84
     + 665 x(85)#85 + 895 x(86)#86 + 2 x(87)#87 + 283 x(88)#88 + 250 x(89)#89
     + 881 x(90)#90 + 393 x(91)#91 + 842 x(92)#92 + 609 x(93)#93 + 161 x(94)#94
     + 191 x(95)#95 + 639 x(96)#96 + 364 x(97)#97 + 418 x(98)#98 + 481 x(99)#99
     <= 36418
 c3: 956 x(0)#0 + 828 x(1)#1 + 958 x(2)#2 + 985 x(3)#3 + 645 x(4)#4
     + 338 x(5)#5 + 755 x(6)#6 + 479 x(7)#7 + 453 x(8)#8 + 647 x(9)#9
     + 588 x(10)#10 + 467 x(11)#11 + 414 x(12)#12 + 237 x(13)#13 + 229 x(14)#14
     + 899 x(15)#15 + 50 x(16)#16 + 65 x(17)#17 + 292 x(18)#18 + 908 x(19)#19
     + 588 x(20)#20 + 221 x(21)#21 + 551 x(22)#22 + 890 x(23)#23 + 701 x(24)#24
     + 318 x(25)#25 + 865 x(26)#26 + 432 x(27)#27 + 224 x(28)#28 + 867 x(29)#29
     + 684 x(30)#30 + 967 x(31)#31 + 501 x(32)#32 + 48 x(33)#33 + 646 x(34)#34
     + 110 x(35)#35 + 574 x(36)#36 + 557 x(37)#37 + 628 x(38)#38 + 789 x(39)#39
     + 579 x(40)#40 + 595 x(41)#41 + 471 x(42)#42 + 738 x(43)#43 + 469 x(44)#44
     + 920 x(45)#45 + 248 x(46)#46 + 312 x(47)#47 + 204 x(48)#48 + 814 x(49)#49
     + 932 x(50)#50 + 203 x(51)#51 + 146 x(52)#52 + 480 x(53)#53 + 872 x(54)#54
     + 68 x(55)#55 + 404 x(56)#56 + 415 x(57)#57 + 380 x(58)#58 + 372 x(59)#59
     + 44 x(60)#60 + 215 x(61)#61 + 87 x(62)#62 + 122 x(63)#63 + 800 x(64)#64
     + 350 x(65)#65 + 822 x(66)#66 + 965 x(67)#67 + 63 x(68)#68 + 950 x(69)#69
     + 747 x(70)#70 + 936 x(71)#71 + 265 x(72)#72 + 118 x(73)#73 + 663 x(74)#74
     + 481 x(75)#75 + 12 x(76)#76 + 781 x(77)#77 + 976 x(78)#78 + 128 x(79)#79
     + 878 x(80)#80 + 578 x(81)#81 + 953 x(82)#82 + 719 x(83)#83 + 901 x(84)#84
     + 515 x(85)#85 + 588 x(86)#86 + 910 x(87)#87 + 616 x(88)#88 + 588 x(89)#89
     + 928 x(90)#90 + 515 x(91)#91 + 972 x(92)#92 + 371 x(93)#93 + 899 x(94)#94
     + 660 x(95)#95 + 885 x(96)#96 + 949 x(97)#97 + 302 x(98)#98 + 997 x(99)#99
     <= 42169
 c4: 27 x(0)#0 + 827 x(1)#1 + 346 x(2)#2 + 631 x(3)#3 + 720 x(4)#4 + 306 x(5)#5
     + 918 x(6)#6 + 662 x(7)#7 + 730 x(8)#8 + 757 x(9)#9 + 253 x(10)#10
     + 633 x(11)#11 + 725 x(12)#12 + 355 x(13)#13 + 82 x(14)#14 + 520 x(15)#15
     + 430 x(16)#16 + 696 x(17)#17 + 420 x(18)#18 + 856 x(19)#19 + 784 x(20)#20
     + 716 x(21)#21 + 23 x(22)#22 + 830 x(23)#23 + 279 x(24)#24 + 245 x(25)#25
     + 759 x(26)#26 + 444 x(27)#27 + 269 x(28)#28 + 558 x(29)#29 + 725 x(30)#30
     + 957 x(31)#31 + 471 x(32)#32 + 613 x(33)#33 + 400 x(34)#34 + 506 x(35)#35
     + 399 x(36)#36 + 437 x(37)#37 + 578 x(38)#38 + 627 x(39)#39 + 784 x(40)#40
     + 432 x(41)#41 + 360 x(42)#42 + 573 x(43)#43 + 188 x(44)#44 + 337 x(45)#45
     + 942 x(46)#46 + 279 x(47)#47 + 709 x(48)#48 + 37 x(49)#49 + 598 x(50)#50
     + 498 x(51)#51 + 908 x(52)#52 + 784 x(53)#53 + 71 x(54)#54 + 963 x(55)#55
     + 405 x(56)#56 + 558 x(57)#57 + 357 x(58)#58 + 562 x(59)#59 + 856 x(60)#60
     + 384 x(61)#61 + 397 x(62)#62 + 439 x(63)#63 + 109 x(64)#64 + 379 x(65)#65
     + 92 x(66)#66 + 186 x(67)#67 + 79 x(68)#68 + 591 x(69)#69 + 580 x(70)#70
     + 487 x(71)#71 + 893 x(72)#72 + 733 x(73)#73 + 855 x(74)#74 + 612 x(75)#75
     + 24 x(76)#76 + 750 x(77)#77 + 679 x(78)#78 + 738 x(79)#79 + 416 x(80)#80
     + 898 x(81)#81 + 27 x(82)#82 + 189 x(83)#83 + 773 x(84)#84 + 967 x(85)#85
     + 841 x(86)#86 + 28 x(87)#87 + 727 x(88)#88 + 214 x(89)#89 + 355 x(90)#90
     + 22 x(91)#91 + 492 x(92)#92 + 668 x(93)#93 + 908 x(94)#94 + 339 x(95)#95
     + 821 x(96)#96 + 846 x(97)#97 + 352 x(98)#98 + 445 x(99)#99 <= 39038
 c5: 551 x(0)#0 + 578 x(1)#1 + 221 x(2)#2 + 195 x(3)#3 + 786 x(4)#4 + 5 x(5)#5
     + 970 x(6)#6 + 868 x(7)#7 + 243 x(8)#8 + 80 x(9)#9 + 868 x(10)#10
     + 483 x(11)#11 + 634 x(12)#12 + 825 x(13)#13 + 891 x(14)#14 + 431 x(15)#15
     + 179 x(16)#16 + 706 x(17)#17 + 158 x(18)#18 + 48 x(19)#19 + 252 x(20)#20
     + 996 x(21)#21 + 91 x(22)#22 + 825 x(23)#23 + 116 x(24)#24 + 146 x(25)#25
     + 980 x(26)#26 + 855 x(27)#27 + 886 x(28)#28 + 78 x(29)#29 + 314 x(30)#30
     + 517 x(31)#31 + 928 x(32)#32 + 236 x(33)#33 + 923 x(34)#34 + 773 x(35)#35
     + 54 x(36)#36 + 936 x(37)#37 + 219 x(38)#38 + 687 x(39)#39 + 941 x(40)#40
     + 543 x(41)#41 + 140 x(42)#42 + 865 x(43)#43 + 840 x(44)#44 + 472 x(45)#45
     + 45 x(46)#46 + 418 x(47)#47 + 12 x(48)#48 + 473 x(49)#49 + 972 x(50)#50
     + 47 x(51)#51 + 925 x(52)#52 + 801 x(53)#53 + 179 x(54)#54 + 121 x(55)#55
     + 445 x(56)#56 + 282 x(57)#57 + 923 x(58)#58 + 565 x(59)#59 + 752 x(60)#60
     + 554 x(61)#61 + 859 x(62)#62 + 89 x(63)#63 + 569 x(64)#64 + 902 x(65)#65
     + 935 x(66)#66 + 551 x(67)#67 + 457 x(68)#68 + 397 x(69)#69 + 17 x(70)#70
     + 795 x(71)#71 + 460 x(72)#72 + 925 x(73)#73 + 488 x(74)#74 + 844 x(75)#75
     + 917 x(76)#76 + 608 x(77)#77 + 859 x(78)#78 + 101 x(79)#79 + 179 x(80)#80
     + 468 x(81)#81 + 596 x(82)#82 + 193 x(83)#83 + 858 x(84)#84 + 405 x(85)#85
     + 677 x(86)#86 + 520 x(87)#87 + 985 x(88)#88 + 107 x(89)#89 + 947 x(90)#90
     + 812 x(91)#91 + 268 x(92)#92 + 636 x(93)#93 + 76 x(94)#94 + 537 x(95)#95
     + 154 x(96)#96 + 407 x(97)#97 + 329 x(98)#98 + 696 x(99)#99 <= 39353
Bounds
 0 <= x(0)#0 <= 1
 0 <= x(1)#1 <= 1
 0 <= x(2)#2 <= 1
 0 <= x(3)#3 <= 1
 0 <= x(4)#4 <= 1
 0 <= x(5)#5 <= 1
 0 <= x(6)#6 <= 1
 0 <= x(7)#7 <= 1
 0 <= x(8)#8 <= 1
 0 <= x(9)#9 <= 1
 0 <= x(10)#10 <= 1
 0 <= x(11)#11 <= 1
 0 <= x(12)#12 <= 1
 0 <= x(13)#13 <= 1
 0 <= x(14)#14 <= 1
 0 <= x(15)#15 <= 1
 0 <= x(16)#16 <= 1
 0 <= x(17)#17 <= 1
 0 <= x(18)#18 <= 1
 0 <= x(19)#19 <= 1
 0 <= x(20)#20 <= 1
 0 <= x(21)#21 <= 1
 0 <= x(22)#22 <= 1
 0 <= x(23)#23 <= 1
 0 <= x(24)#24 <= 1
 0 <= x(25)#25 <= 1
 0 <= x(26)#26 <= 1
 0 <= x(27)#27 <= 1
 0 <= x(28)#28 <= 1
 0 <= x(29)#29 <= 1
 0 <= x(30)#30 <= 1
 0 <= x(31)#31 <= 1
 0 <= x(32)#32 <= 1
 0 <= x(33)#33 <= 1
 0 <= x(34)#34 <= 1
 0 <= x(35)#35 <= 1
 0 <= x(36)#36 <= 1
 0 <= x(37)#37 <= 1
 0 <= x(38)#38 <= 1
 0 <= x(39)#39 <= 1
 0 <= x(40)#40 <= 1
 0 <= x(41)#41 <= 1
 0 <= x(42)#42 <= 1
 0 <= x(43)#43 <= 1
 0 <= x(44)#44 <= 1
 0 <= x(45)#45 <= 1
 0 <= x(46)#46 <= 1
 0 <= x(47)#47 <= 1
 0 <= x(48)#48 <= 1
 0 <= x(49)#49 <= 1
 0 <= x(50)#50 <= 1
 0 <= x(51)#51 <= 1
 0 <= x(52)#52 <= 1
 0 <= x(53)#53 <= 1
 0 <= x(54)#54 <= 1
 0 <= x(55)#55 <= 1
 0 <= x(56)#56 <= 1
 0 <= x(57)#57 <= 1
 0 <= x(58)#58 <= 1
 0 <= x(59)#59 <= 1
 0 <= x(60)#60 <= 1
 0 <= x(61)#61 <= 1
 0 <= x(62)#62 <= 1
 0 <= x(63)#63 <= 1
 0 <= x(64)#64 <= 1
 0 <= x(65)#65 <= 1
 0 <= x(66)#66 <= 1
 0 <= x(67)#67 <= 1
 0 <= x(68)#68 <= 1
 0 <= x(69)#69 <= 1
 0 <= x(70)#70 <= 1
 0 <= x(71)#71 <= 1
 0 <= x(72)#72 <= 1
 0 <= x(73)#73 <= 1
 0 <= x(74)#74 <= 1
 0 <= x(75)#75 <= 1
 0 <= x(76)#76 <= 1
 0 <= x(77)#77 <= 1
 0 <= x(78)#78 <= 1
 0 <= x(79)#79 <= 1
 0 <= x(80)#80 <= 1
 0 <= x(81)#81 <= 1
 0 <= x(82)#82 <= 1
 0 <= x(83)#83 <= 1
 0 <= x(84)#84 <= 1
 0 <= x(85)#85 <= 1
 0 <= x(86)#86 <= 1
 0 <= x(87)#87 <= 1
 0 <= x(88)#88 <= 1
 0 <= x(89)#89 <= 1
 0 <= x(90)#90 <= 1
 0 <= x(91)#91 <= 1
 0 <= x(92)#92 <= 1
 0 <= x(93)#93 <= 1
 0 <= x(94)#94 <= 1
 0 <= x(95)#95 <= 1
 0 <= x(96)#96 <= 1
 0 <= x(97)#97 <= 1
 0 <= x(98)#98 <= 1
 0 <= x(99)#99 <= 1
Generals
 x(0)#0  x(1)#1  x(2)#2  x(3)#3  x(4)#4  x(5)#5  x(6)#6  x(7)#7  x(8)#8 
 x(9)#9  x(10)#10  x(11)#11  x(12)#12  x(13)#13  x(14)#14  x(15)#15  x(16)#16 
 x(17)#17  x(18)#18  x(19)#19  x(20)#20  x(21)#21  x(22)#22  x(23)#23 
 x(24)#24  x(25)#25  x(26)#26  x(27)#27  x(28)#28  x(29)#29  x(30)#30 
 x(31)#31  x(32)#32  x(33)#33  x(34)#34  x(35)#35  x(36)#36  x(37)#37 
 x(38)#38  x(39)#39  x(40)#40  x(41)#41  x(42)#42  x(43)#43  x(44)#44 
 x(45)#45  x(46)#46  x(47)#47  x(48)#48  x(49)#49  x(50)#50  x(51)#51 
 x(52)#52  x(53)#53  x(54)#54  x(55)#55  x(56)#56  x(57)#57  x(58)#58 
 x(59)#59  x(60)#60  x(61)#61  x(62)#62  x(63)#63  x(64)#64  x(65)#65 
 x(66)#66  x(67)#67  x(68)#68  x(69)#69  x(70)#70  x(71)#71  x(72)#72 
 x(73)#73  x(74)#74  x(75)#75  x(76)#76  x(77)#77  x(78)#78  x(79)#79 
 x(80)#80  x(81)#81  x(82)#82  x(83)#83  x(84)#84  x(85)#85  x(86)#86 
 x(87)#87  x(88)#88  x(89)#89  x(90)#90  x(91)#91  x(92)#92  x(93)#93 
 x(94)#94  x(95)#95  x(96)#96  x(97)#97  x(98)#98  x(99)#99 
End
